NAME: binpacking2d-13.bp2d
COMMENT: gcut13
NB_ITEMS: 32
BIN_WIDTH: 3000
BIN_HEIGHT: 3000

ITEMS [id width height]:
1 365 185
2 378 200
3 410 165
4 425 148
5 425 296
6 439 116
7 464 1006
8 520 205
9 520 350
10 540 530
11 549 1413
12 549 1882
13 553 496
14 555 755
15 555 496
16 555 659
17 567 473
18 572 592
19 572 975
20 572 1175
21 572 1575
22 572 1390
23 572 1490
24 572 1590
25 572 1690
26 572 1890
27 610 625
28 660 490
29 690 447
30 949 445
31 949 478
32 970 463